************************************************************************
file with basedata            : md371_.bas
initial value random generator: 1829893968
************************************************************************
projects                      :  1
jobs (incl. supersource/sink ):  22
horizon                       :  164
RESOURCES
  - renewable                 :  2   R
  - nonrenewable              :  2   N
  - doubly constrained        :  0   D
************************************************************************
PROJECT INFORMATION:
pronr.  #jobs rel.date duedate tardcost  MPM-Time
    1     20      0       25        5       25
************************************************************************
PRECEDENCE RELATIONS:
jobnr.    #modes  #successors   successors
   1        1          3           2   3   4
   2        3          3           5   9  11
   3        3          3           6   7  11
   4        3          3           7  14  18
   5        3          3           6  12  19
   6        3          2          13  17
   7        3          3           8  10  16
   8        3          3          13  17  19
   9        3          1          19
  10        3          2          12  15
  11        3          1          16
  12        3          1          13
  13        3          2          20  21
  14        3          2          15  16
  15        3          2          17  20
  16        3          1          21
  17        3          1          21
  18        3          1          20
  19        3          1          22
  20        3          1          22
  21        3          1          22
  22        1          0        
************************************************************************
REQUESTS/DURATIONS:
jobnr. mode duration  R 1  R 2  N 1  N 2
------------------------------------------------------------------------
  1      1     0       0    0    0    0
  2      1     3       6    0    5    6
         2     5       0    5    5    5
         3     6       0    5    2    3
  3      1     2       9    0    9   10
         2     5       8    0    9   10
         3     6       5    0    9    9
  4      1     6       4    0    6    7
         2     6       0    3    4    5
         3     7       0    2    4    2
  5      1     3       0    5   10    2
         2     4       4    0    6    2
         3     8       3    0    2    2
  6      1     4       0    8    7    6
         2     7       8    0    4    4
         3     9       0    5    2    1
  7      1     2       0    7    7    7
         2     7       0    5    6    6
         3     8       6    0    4    4
  8      1     3       6    0    8    9
         2     4       3    0    5    6
         3    10       0    9    5    6
  9      1     4       9    0   10    5
         2     5       9    0    6    5
         3     6       8    0    4    4
 10      1     7       7    0    5    5
         2     9       0    8    5    4
         3    10       0    8    5    2
 11      1     2       7    0    5    7
         2     8       7    0    4    6
         3    10       3    0    2    4
 12      1     1       1    0    6    4
         2     2       0    1    4    2
         3     8       0    1    3    1
 13      1     2       3    0    8    8
         2     9       3    0    5    8
         3    10       0    6    3    8
 14      1     2       8    0   10    7
         2     6       0    5    8    5
         3     7       0    4    8    3
 15      1     7       5    0    6    8
         2     8       2    0    5    5
         3     9       2    0    5    3
 16      1     2       5    0    5    6
         2     4       0    6    4    4
         3     7       5    0    3    3
 17      1     1       0    6    5    5
         2     1       9    0    5    4
         3     9       5    0    5    4
 18      1     6       0   10    6    9
         2    10       0   10    3    9
         3    10       4    0    4    9
 19      1     6       6    0    6    9
         2     6       0    6    5    7
         3     7       8    0    4    7
 20      1     3       0    6    7    9
         2     4       0    4    7    8
         3     7       0    3    6    8
 21      1     2       4    0    5    8
         2     9       0    4    4    7
         3    10       4    0    2    3
 22      1     0       0    0    0    0
************************************************************************
RESOURCEAVAILABILITIES:
  R 1  R 2  N 1  N 2
   25   31  122  124
************************************************************************
MAXIMAL LAGS:
from  to  type  delay
    1   12   ES      0
    1    2   ES      0
    2   12   ES      0
    1    3   ES      0
    3   12   ES      0
    1    4   ES      0
    4   12   ES      0
    1    5   ES      0
    5   12   ES      0
    1    6   ES      0
    6   12   ES      0
    1    7   ES      0
    7   12   ES      0
    1    8   ES      0
    8   12   ES      0
    1    9   ES      0
    9   12   ES      0
    1   10   ES      0
   10   12   ES      0
    1   11   ES      0
   11   12   ES      0
    1   12   ES      0
    2    5   SS     -4
    2    5   SE     -5
    2    5   ES     11
    2    5   EE      2
    2    9   SS      5
    2    9   SE     -7
    9    2   SE      0
    2    9   ES      0
    2    9   EE    -12
    2   11   SS    -10
    2   11   SE      8
    2   11   ES      5
    2   11   EE      2
    3    6   SS      3
    3    6   SE     10
    3    6   ES      3
    3    6   EE      7
    3    7   SS     12
    3    7   SE     -1
    3    7   ES      8
    3    7   EE     -5
    3   11   SS     -6
    3   11   SE     11
    3   11   ES     -3
    3   11   EE     -8
    4    7   SS     -8
    4    7   SE     -2
    4    7   ES     -6
    4    7   EE      6
    4   14   SS     -5
    4   14   SE      7
    4   14   ES     -8
    4   14   EE     -8
    4   18   SS     -4
    4   18   SE     -8
    4   18   ES     -1
    4   18   EE     12
    5    6   SS      3
    5    6   SE      3
    5    6   ES      2
    5    6   EE     12
    5   19   SS     -7
    5   19   SE      2
    5   19   ES      2
    5   19   EE     -4
    6   13   SS     -1
    6   13   SE      2
    6   13   ES      9
    6   13   EE     -2
    6   17   SS    -11
    6   17   SE     -7
    6   17   ES     -9
    6   17   EE      9
    7    8   SS      4
    7    8   SE      4
    7    8   ES     -1
    7    8   EE     -7
    7   10   SS    -10
    7   10   SE     -9
    7   10   ES     -3
    7   10   EE      4
    7   16   SS     -3
    7   16   SE      1
    7   16   ES    -11
    7   16   EE     -5
    8   13   SS     10
    8   13   SE      0
    8   13   ES     -6
    8   13   EE      4
    8   17   SS     -5
    8   17   SE      6
    8   17   ES      0
    8   17   EE     10
    8   19   SS     12
    8   19   SE      5
    8   19   ES      3
    8   19   EE      5
    9   19   SS      4
    9   19   SE     -3
    9   19   ES     -7
    9   19   EE    -12
   10   15   SS     12
   10   15   SE     11
   10   15   ES      9
   10   15   EE     -3
   11   16   SS      2
   11   16   SE     -2
   11   16   ES     10
   11   16   EE      8
   12   13   SS     10
   12   13   SE      6
   12   13   ES     12
   12   13   EE      5
   13   20   SS     -5
   13   20   SE     -1
   13   20   ES      9
   13   20   EE      4
   13   21   SS      7
   13   21   SE     -3
   13   21   ES      2
   13   21   EE     12
   14   15   SS      3
   14   15   SE    -11
   14   15   ES      0
   14   15   EE      6
   14   16   SS     10
   14   16   SE     11
   14   16   ES     -5
   14   16   EE      9
   15   17   SS      6
   15   17   SE     -7
   15   17   ES      4
   15   17   EE     -2
   15   20   SS     -5
   15   20   SE     -8
   15   20   ES      8
   15   20   EE      8
   16   21   SS    -11
   16   21   SE     -8
   16   21   ES     -2
   16   21   EE     -3
   17   21   SS      1
   17   21   SE    -10
   17   21   ES      1
   17   21   EE     10
   18   20   SS      9
   18   20   SE     10
   18   20   ES      8
   18   20   EE      3
   19   22   SS      6
   19   22   SE     -3
   19   22   ES      1
   19   22   EE     11
   20   22   SS      2
   20   22   SE      8
   20   22   ES      2
   20   22   EE      4
   21   22   SS      9
   21   22   SE    -10
   21   22   ES      4
   21   22   EE     12
************************************************************************
